0000000000000000
0000000000000000
0000000010000000
0000000011000000
0000000011100000
0000000011110000
0000000011110000
0000000001110000
0000000001110000
0000000001110000
0000000001110000
0000000001110000
0000000001110000
0000000000110000
0000000000010000
0000000000000000
